
  12    4
  10   10   10   10

   0   0   0   0   0   4 2 3 4 11 
   3  10  10  10  10   2 6 5 
   5  10  10  10  10   2 9 7 
   2  10  10  10  10   2 9 8 
   3  10  10  10  10   1 7 
   9  10  10  10  10   1 7 
   7  10  10  10  10   1 8 
   3  10  10  10  10   1 10 
   2  10  10  10  10   1 10 
   2  10  10  10  10   1 12
   5  10  10  10  10   1 12
   0   0   0   0   0   0 
